NAME : rc_208.3.6344386.tour
COMMENT : Length = 6344386
COMMENT : Found by LKH [Keld Helsgaun] Tue May  2 05:21:40 2017
TYPE : TOUR
DIMENSION : 36
TOUR_SECTION
1
34
3
19
8
31
29
30
23
35
22
32
25
33
10
11
12
14
16
17
18
21
15
13
26
7
9
20
5
6
4
2
28
36
24
27
-1
EOF
